Start evaluate stage for setting _10000_5_4q_mnl_A700...

Evaluating using MNL with setting tag _10000_5_4q_mnl_A700.
 Results stored at /export/storage_covidvaccine/Result/MNL_partial/M5_K10000_4q/HighSchools/

The number of HighSchools opened: 4735
Set parameter ServerPassword
Set parameter CSQueueTimeout to value 120
Set parameter CSIdleTimeout to value 60
Set parameter ServerTimeout to value 10
Set parameter TokenServer to value "164.67.163.231"
Set parameter MIPFocus to value 3
Set parameter MIPGap to value 0.005
Set parameter TimeLimit to value 21600
Gurobi Optimizer version 10.0.1 build v10.0.1rc0 (linux64)

CPU model: AMD EPYC 7742 64-Core Processor, instruction set [SSE2|AVX|AVX2]
Thread count: 128 physical cores, 256 logical processors, using up to 32 threads

Optimize a model with 85812375 rows, 42903525 columns and 85844080 nonzeros
Model fingerprint: 0x2b3b0d6f
Coefficient statistics:
  Matrix range     [4e-01, 7e+03]
  Objective range  [4e-01, 7e+03]
  Bounds range     [1e+00, 1e+00]
  RHS range        [1e+00, 1e+04]
Presolve removed 594 rows and 0 columns (presolve time = 14s) ...
Presolve removed 85811494 rows and 42866495 columns (presolve time = 22s) ...
Presolve removed 85811494 rows and 42892672 columns (presolve time = 26s) ...
Presolve removed 85811494 rows and 42902644 columns (presolve time = 32s) ...
Presolve removed 85812375 rows and 42903525 columns (presolve time = 35s) ...
Presolve removed 85812375 rows and 42903525 columns
Presolve time: 41.08s
Presolve: All rows and columns removed
Iteration    Objective       Primal Inf.    Dual Inf.      Time
       0    3.4469092e+07   0.000000e+00   0.000000e+00     88s

Solved in 0 iterations and 87.87 seconds (51.24 work units)
Optimal objective  3.446909205e+07
Evaluation finished!

Evaluation with leftover fulfillments...

========================================================================================================================
Start filling the leftover demands to their 2 choice

Total demand fulfilled in previous round 34.46909, with leftover unfulfilled demand: 1.77533;    Resulting in a total of 36.24442, but b/c consideration set, the maximum possible demand in coming round is 1.23995;    Try to fill them with 3853 sites that has leftover capacity 12.87898

Set parameter MIPFocus to value 3
Set parameter MIPGap to value 0.005
Set parameter TimeLimit to value 21600
Gurobi Optimizer version 10.0.1 build v10.0.1rc0 (linux64)

CPU model: AMD EPYC 7742 64-Core Processor, instruction set [SSE2|AVX|AVX2]
Thread count: 128 physical cores, 256 logical processors, using up to 32 threads

Optimize a model with 85812375 rows, 42903525 columns and 85809701 nonzeros
Model fingerprint: 0x32849847
Coefficient statistics:
  Matrix range     [8e-02, 8e+03]
  Objective range  [8e-02, 8e+03]
  Bounds range     [1e+00, 1e+00]
  RHS range        [1e+00, 1e+04]
Presolve removed 3877 rows and 0 columns (presolve time = 16s) ...
Presolve removed 85812133 rows and 42900874 columns (presolve time = 25s) ...
Presolve removed 85812133 rows and 42902706 columns (presolve time = 29s) ...
Presolve removed 85812133 rows and 42903283 columns (presolve time = 34s) ...
Presolve removed 85812133 rows and 42903283 columns (presolve time = 36s) ...
Presolve removed 85812375 rows and 42903525 columns (presolve time = 40s) ...
Presolve removed 85812375 rows and 42903525 columns
Presolve time: 46.20s
Presolve: All rows and columns removed
Iteration    Objective       Primal Inf.    Dual Inf.      Time
       0    7.1779858e+05   0.000000e+00   0.000000e+00    102s

Solved in 0 iterations and 101.66 seconds (50.16 work units)
Optimal objective  7.177985789e+05
========================================================================================================================
Start filling the leftover demands to their 3 choice

Total demand fulfilled in previous round 0.7178, with leftover unfulfilled demand: 0.52216;    Resulting in a total of 1.23995, but b/c consideration set, the maximum possible demand in coming round is 0.0784;    Try to fill them with 3568 sites that has leftover capacity 12.16061

Set parameter MIPFocus to value 3
Set parameter MIPGap to value 0.005
Set parameter TimeLimit to value 21600
Gurobi Optimizer version 10.0.1 build v10.0.1rc0 (linux64)

CPU model: AMD EPYC 7742 64-Core Processor, instruction set [SSE2|AVX|AVX2]
Thread count: 128 physical cores, 256 logical processors, using up to 32 threads

Optimize a model with 85812375 rows, 42903525 columns and 85807409 nonzeros
Model fingerprint: 0x7901d55b
Coefficient statistics:
  Matrix range     [1e-01, 3e+03]
  Objective range  [1e-01, 3e+03]
  Bounds range     [1e+00, 1e+00]
  RHS range        [1e+00, 1e+04]
Presolve removed 5063 rows and 0 columns (presolve time = 14s) ...
Presolve removed 85812358 rows and 42903166 columns (presolve time = 24s) ...
Presolve removed 85812358 rows and 42903481 columns (presolve time = 27s) ...
Presolve removed 85812358 rows and 42903508 columns (presolve time = 32s) ...
Presolve removed 85812375 rows and 42903525 columns (presolve time = 35s) ...
Presolve removed 85812375 rows and 42903525 columns
Presolve time: 41.05s
Presolve: All rows and columns removed
Iteration    Objective       Primal Inf.    Dual Inf.      Time
       0    6.6268242e+04   0.000000e+00   0.000000e+00     87s

Solved in 0 iterations and 86.50 seconds (50.16 work units)
Optimal objective  6.626824198e+04
Finished evaluate stage for setting _10000_5_4q_mnl_A700!

